
  22   10
  10   10   10   10   10   10   10   10   10   10

   0   0   0   0   0   0   0   0   0   0   0   5 2 6 7 9 10 
   2   0   0   0   0   0  10   0   0   0   0   2 13 3 
   6   0  10   0   0   0   0   0   0   0   0   3 21 5 4 
   3   0   0   0   0   0   0   0   0  10   0   3 15 11 8 
   7   0   0  10   0   0   0   0   0   0   0   4 20 15 14 12 
   7   0   0   0   0   0   0   0   0   0  10   3 21 13 11 
   3   0  10   0   0   0   0   0   0   0   0   3 16 15 12 
   9   0  10   0   0   0   0   0   0   0   0   2 20 12 
   4   0   0   0  10   0   0   0   0   0   0   2 20 12 
   6   0   0   0   0   0   0   0   0  10   0   1 11 
   7   0   0   0   0   0   0  10   0   0   0   2 16 14 
   9   0   0  10   0   0   0   0   0   0   0   3 19 18 17 
   7   0  10   0   0   0   0   0   0   0   0   1 14 
   2   0   0   0   0   0   0   0  10   0   0   2 18 17 
   1   0  10   0   0   0   0   0   0   0   0   2 18 17 
   1   0   0   0   0   0   0   0   0   0  10   1 17 
   5   0   0   0   0   0   0   0  10   0   0   1 22
   3   0   0   0   0   0   0  10   0   0   0   1 22
  10   0   0   0   0   0   0  10   0   0   0   1 22
   1   0   0   0   0   0   0   0   0   0  10   1 22
   7  10   0   0   0   0   0   0   0   0   0   1 22
   0   0   0   0   0   0   0   0   0   0   0   0 
